Cost: 1646
0-3-38-19-18-17-14-15-5-7-6-35-0
0-33-30-26-28-27-20-13-36-21-22-23-24-25-31-32-0
0-2-4-8-37-9-10-12-11-16-29-1-0
Cost: 1646
0-4-8-37-9-10-12-11-16-38-29-1-0
0-2-3-19-18-17-14-15-5-7-6-35-0
0-33-30-26-28-27-20-13-36-21-22-23-24-25-31-32-0
Cost: 1646
0-3-38-19-18-17-14-15-5-7-6-35-0
0-33-30-26-28-27-20-13-36-21-22-23-24-25-31-32-0
0-2-4-8-37-9-10-12-11-16-29-1-0
Cost: 1646
0-4-5-8-37-9-10-12-11-16-29-1-0
0-2-3-38-19-18-17-14-15-7-6-35-0
0-33-30-26-28-27-20-13-36-21-22-23-24-25-31-32-0
Cost: 1646
0-2-4-8-37-9-10-12-11-16-38-29-1-0
0-3-19-18-17-14-15-5-7-6-35-0
0-33-30-26-28-27-20-13-36-21-22-23-24-25-31-32-0
Cost: 1646
0-2-4-8-37-9-10-12-11-16-29-1-0
0-3-38-19-18-17-14-15-5-7-6-35-0
0-33-30-26-28-27-20-13-36-21-22-23-24-25-31-32-0
Cost: 1646
0-2-3-19-18-17-14-15-7-6-35-0
0-33-30-26-28-27-20-13-36-21-22-23-24-25-31-32-0
0-4-5-8-37-9-10-12-11-16-38-29-1-0
Cost: 1646
0-3-38-19-18-17-14-15-7-6-35-0
0-2-4-5-8-37-9-10-12-11-16-29-1-0
0-33-30-26-28-27-20-13-36-21-22-23-24-25-31-32-0
Cost: 1646
0-3-38-19-18-17-14-15-7-6-35-0
0-2-4-5-8-37-9-10-12-11-16-29-1-0
0-33-30-26-28-27-20-13-36-21-22-23-24-25-31-32-0
Cost: 1646
0-3-38-19-18-17-14-15-7-6-35-0
0-2-4-5-8-37-9-10-12-11-16-29-1-0
0-33-30-26-28-27-20-13-36-21-22-23-24-25-31-32-0
Cost: 1646
0-3-38-19-18-17-14-15-7-6-35-0
0-2-4-5-8-37-9-10-12-11-16-29-1-0
0-33-30-26-28-27-20-13-36-21-22-23-24-25-31-32-0
Cost: 1646
0-33-30-26-28-27-20-13-36-21-22-23-24-25-31-32-0
0-4-8-37-9-10-12-11-16-38-29-1-0
0-2-3-19-18-17-14-15-5-7-6-35-0
Cost: 1646
0-33-30-26-28-27-20-13-36-21-22-23-24-25-31-32-0
0-4-8-37-9-10-12-11-16-38-29-1-0
0-2-3-19-18-17-14-15-5-7-6-35-0
Cost: 1646
0-33-30-26-28-27-20-13-36-21-22-23-24-25-31-32-0
0-4-8-37-9-10-12-11-16-38-29-1-0
0-2-3-19-18-17-14-15-5-7-6-35-0
Cost: 1646
0-33-30-26-28-27-20-13-36-21-22-23-24-25-31-32-0
0-4-8-37-9-10-12-11-16-38-29-1-0
0-2-3-19-18-17-14-15-5-7-6-35-0
Cost: 1646
0-33-30-26-28-27-20-13-36-21-22-23-24-25-31-32-0
0-4-8-37-9-10-12-11-16-38-29-1-0
0-2-3-19-18-17-14-15-5-7-6-35-0
Cost: 1646
0-33-30-26-28-27-20-13-36-21-22-23-24-25-31-32-0
0-4-8-37-9-10-12-11-16-38-29-1-0
0-2-3-19-18-17-14-15-5-7-6-35-0
Cost: 1646
0-33-30-26-28-27-20-13-36-21-22-23-24-25-31-32-0
0-2-3-38-19-18-17-14-15-7-6-35-0
0-4-5-8-37-9-10-12-11-16-29-1-0
Cost: 1646
0-33-30-26-28-27-20-13-36-21-22-23-24-25-31-32-0
0-4-8-37-9-10-12-11-16-38-29-1-0
0-2-3-19-18-17-14-15-5-7-6-35-0
Cost: 1646
0-33-30-26-28-27-20-13-36-21-22-23-24-25-31-32-0
0-4-8-37-9-10-12-11-16-38-29-1-0
0-2-3-19-18-17-14-15-5-7-6-35-0
Cost: 1646
0-33-30-26-28-27-20-13-36-21-22-23-24-25-31-32-0
0-4-8-37-9-10-12-11-16-38-29-1-0
0-2-3-19-18-17-14-15-5-7-6-35-0
Cost: 1646
0-33-30-26-28-27-20-13-36-21-22-23-24-25-31-32-0
0-4-8-37-9-10-12-11-16-38-29-1-0
0-2-3-19-18-17-14-15-5-7-6-35-0
Cost: 1646
0-33-30-26-28-27-20-13-36-21-22-23-24-25-31-32-0
0-4-8-37-9-10-12-11-16-38-29-1-0
0-2-3-19-18-17-14-15-5-7-6-35-0
Cost: 1646
0-33-30-26-28-27-20-13-36-21-22-23-24-25-31-32-0
0-4-8-37-9-10-12-11-16-38-29-1-0
0-2-3-19-18-17-14-15-5-7-6-35-0
Cost: 1646
0-33-30-26-28-27-20-13-36-21-22-23-24-25-31-32-0
0-4-8-37-9-10-12-11-16-38-29-1-0
0-2-3-19-18-17-14-15-5-7-6-35-0
Cost: 1646
0-3-38-19-18-17-14-15-5-7-6-35-0
0-2-4-8-37-9-10-12-11-16-29-1-0
0-33-30-26-28-27-20-13-36-21-22-23-24-25-31-32-0
Cost: 1646
0-33-30-26-28-27-20-13-36-21-22-23-24-25-31-32-0
0-4-8-37-9-10-12-11-16-38-29-1-0
0-2-3-19-18-17-14-15-5-7-6-35-0
Cost: 1646
0-33-30-26-28-27-20-13-36-21-22-23-24-25-31-32-0
0-4-8-37-9-10-12-11-16-38-29-1-0
0-2-3-19-18-17-14-15-5-7-6-35-0
Cost: 1646
0-33-30-26-28-27-20-13-36-21-22-23-24-25-31-32-0
0-4-8-37-9-10-12-11-16-38-29-1-0
0-2-3-19-18-17-14-15-5-7-6-35-0
Cost: 1646
0-33-30-26-28-27-20-13-36-21-22-23-24-25-31-32-0
0-4-8-37-9-10-12-11-16-38-29-1-0
0-2-3-19-18-17-14-15-5-7-6-35-0
Cost: 1646
0-2-3-19-18-17-14-15-5-7-6-35-0
0-4-8-37-9-10-12-11-16-38-29-1-0
0-33-30-26-28-27-20-13-36-21-22-23-24-25-31-32-0
Cost: 1646
0-2-4-8-37-9-10-12-11-16-38-29-1-0
0-3-19-18-17-14-15-5-7-6-35-0
0-33-30-26-28-27-20-13-36-21-22-23-24-25-31-32-0
Cost: 1646
0-2-3-19-18-17-14-15-5-7-6-35-0
0-4-8-37-9-10-12-11-16-38-29-1-0
0-33-30-26-28-27-20-13-36-21-22-23-24-25-31-32-0
Cost: 1646
0-2-4-8-37-9-10-12-11-16-29-1-0
0-3-38-19-18-17-14-15-5-7-6-35-0
0-33-30-26-28-27-20-13-36-21-22-23-24-25-31-32-0
Cost: 1646
0-2-3-19-18-17-14-15-5-7-6-35-0
0-4-8-37-9-10-12-11-16-38-29-1-0
0-33-30-26-28-27-20-13-36-21-22-23-24-25-31-32-0
